NAME          
ROWS
 N  OBJ
 L  c1
 L  c2
 L  c3
COLUMNS
    MARKER    'MARKER'                 'INTORG'
    x[1]      c1        769
    x[1]      c2        129
    x[1]      c3        52
    x[1]      OBJ       -25
    x[2]      c1        559
    x[2]      c2        85
    x[2]      c3        756
    x[2]      OBJ       -548
    x[3]      c1        288
    x[3]      c2        215
    x[3]      c3        842
    x[3]      OBJ       -947
    x[4]      c1        255
    x[4]      c2        576
    x[4]      c3        56
    x[4]      OBJ       -924
    x[5]      c1        637
    x[5]      c2        521
    x[5]      c3        586
    x[5]      OBJ       -229
    x[6]      c1        589
    x[6]      c2        113
    x[6]      c3        32
    x[6]      OBJ       -947
    x[7]      c1        705
    x[7]      c2        917
    x[7]      c3        464
    x[7]      OBJ       -622
    x[8]      c1        571
    x[8]      c2        375
    x[8]      c3        580
    x[8]      OBJ       -78
    x[9]      c1        5
    x[9]      c2        128
    x[9]      c3        999
    x[9]      OBJ       -224
    x[10]     c1        680
    x[10]     c2        632
    x[10]     c3        621
    x[10]     OBJ       -362
    x[11]     c1        591
    x[11]     c2        663
    x[11]     c3        704
    x[11]     OBJ       -419
    x[12]     c1        514
    x[12]     c2        469
    x[12]     c3        222
    x[12]     OBJ       -812
    x[13]     c1        899
    x[13]     c2        830
    x[13]     c3        497
    x[13]     OBJ       -515
    x[14]     c1        400
    x[14]     c2        123
    x[14]     c3        37
    x[14]     OBJ       -87
    x[15]     c1        65
    x[15]     c2        366
    x[15]     c3        189
    x[15]     OBJ       -860
    x[16]     c1        158
    x[16]     c2        646
    x[16]     c3        714
    x[16]     OBJ       -173
    x[17]     c1        33
    x[17]     c2        219
    x[17]     c3        938
    x[17]     OBJ       -37
    x[18]     c1        903
    x[18]     c2        700
    x[18]     c3        133
    x[18]     OBJ       -376
    x[19]     c1        764
    x[19]     c2        225
    x[19]     c3        446
    x[19]     OBJ       -832
    x[20]     c1        668
    x[20]     c2        350
    x[20]     c3        342
    x[20]     OBJ       -796
RHS
    rhs       c1        5026
    rhs       c2        4141
    rhs       c3        4605
RANGES
BOUNDS
 LO bounds    x[1]      0
 PL bounds    x[1]
 LO bounds    x[2]      0
 PL bounds    x[2]
 LO bounds    x[3]      0
 PL bounds    x[3]
 LO bounds    x[4]      0
 PL bounds    x[4]
 LO bounds    x[5]      0
 PL bounds    x[5]
 LO bounds    x[6]      0
 PL bounds    x[6]
 LO bounds    x[7]      0
 PL bounds    x[7]
 LO bounds    x[8]      0
 PL bounds    x[8]
 LO bounds    x[9]      0
 PL bounds    x[9]
 LO bounds    x[10]     0
 PL bounds    x[10]
 LO bounds    x[11]     0
 PL bounds    x[11]
 LO bounds    x[12]     0
 PL bounds    x[12]
 LO bounds    x[13]     0
 PL bounds    x[13]
 LO bounds    x[14]     0
 PL bounds    x[14]
 LO bounds    x[15]     0
 PL bounds    x[15]
 LO bounds    x[16]     0
 PL bounds    x[16]
 LO bounds    x[17]     0
 PL bounds    x[17]
 LO bounds    x[18]     0
 PL bounds    x[18]
 LO bounds    x[19]     0
 PL bounds    x[19]
 LO bounds    x[20]     0
 PL bounds    x[20]
ENDATA
